
Gurobi 8.0.1 (linux64, Matlab) logging started Mon 27 May 2019 16:13:16 BST

Optimize a model with 93200 rows, 178510 columns and 2796210 nonzeros
Coefficient statistics:
  Matrix range     [2e-02, 4e+02]
  Objective range  [1e-03, 1e+01]
  Bounds range     [2e+01, 2e+06]
  RHS range        [4e+00, 1e+06]
Iteration    Objective       Primal Inf.    Dual Inf.      Time
       0    5.3295199e+06   0.000000e+00   0.000000e+00      0s

Solved in 0 iterations and 0.35 seconds
Optimal objective  5.329519876e+06
